\ ./sgf2ilp.py --objective=total
\ 2025/02/17 19:37:01
\  a simple graph with 10 nodes, 5 on each layer

Min
  total
st
  + x_0_1 + x_1_0 = 1
  + x_0_2 + x_2_0 = 1
  + x_0_3 + x_3_0 = 1
  + x_0_4 + x_4_0 = 1
  + x_1_2 + x_2_1 = 1
  + x_1_3 + x_3_1 = 1
  + x_1_4 + x_4_1 = 1
  + x_2_3 + x_3_2 = 1
  + x_2_4 + x_4_2 = 1
  + x_3_4 + x_4_3 = 1
  + x_5_6 + x_6_5 = 1
  + x_5_7 + x_7_5 = 1
  + x_5_8 + x_8_5 = 1
  + x_5_9 + x_9_5 = 1
  + x_6_7 + x_7_6 = 1
  + x_6_8 + x_8_6 = 1
  + x_6_9 + x_9_6 = 1
  + x_7_8 + x_8_7 = 1
  + x_7_9 + x_9_7 = 1
  + x_8_9 + x_9_8 = 1
  + x_0_2 - x_0_1 - x_1_2 >= -1
  + x_0_1 - x_0_2 - x_2_1 >= -1
  + x_0_3 - x_0_1 - x_1_3 >= -1
  + x_0_1 - x_0_3 - x_3_1 >= -1
  + x_0_4 - x_0_1 - x_1_4 >= -1
  + x_0_1 - x_0_4 - x_4_1 >= -1
  + x_0_3 - x_0_2 - x_2_3 >= -1
  + x_0_2 - x_0_3 - x_3_2 >= -1
  + x_0_4 - x_0_2 - x_2_4 >= -1
  + x_0_2 - x_0_4 - x_4_2 >= -1
  + x_0_4 - x_0_3 - x_3_4 >= -1
  + x_0_3 - x_0_4 - x_4_3 >= -1
  + x_1_3 - x_1_2 - x_2_3 >= -1
  + x_1_2 - x_1_3 - x_3_2 >= -1
  + x_1_4 - x_1_2 - x_2_4 >= -1
  + x_1_2 - x_1_4 - x_4_2 >= -1
  + x_1_4 - x_1_3 - x_3_4 >= -1
  + x_1_3 - x_1_4 - x_4_3 >= -1
  + x_2_4 - x_2_3 - x_3_4 >= -1
  + x_2_3 - x_2_4 - x_4_3 >= -1
  + x_5_7 - x_5_6 - x_6_7 >= -1
  + x_5_6 - x_5_7 - x_7_6 >= -1
  + x_5_8 - x_5_6 - x_6_8 >= -1
  + x_5_6 - x_5_8 - x_8_6 >= -1
  + x_5_9 - x_5_6 - x_6_9 >= -1
  + x_5_6 - x_5_9 - x_9_6 >= -1
  + x_5_8 - x_5_7 - x_7_8 >= -1
  + x_5_7 - x_5_8 - x_8_7 >= -1
  + x_5_9 - x_5_7 - x_7_9 >= -1
  + x_5_7 - x_5_9 - x_9_7 >= -1
  + x_5_9 - x_5_8 - x_8_9 >= -1
  + x_5_8 - x_5_9 - x_9_8 >= -1
  + x_6_8 - x_6_7 - x_7_8 >= -1
  + x_6_7 - x_6_8 - x_8_7 >= -1
  + x_6_9 - x_6_7 - x_7_9 >= -1
  + x_6_7 - x_6_9 - x_9_7 >= -1
  + x_6_9 - x_6_8 - x_8_9 >= -1
  + x_6_8 - x_6_9 - x_9_8 >= -1
  + x_7_9 - x_7_8 - x_8_9 >= -1
  + x_7_8 - x_7_9 - x_9_8 >= -1
  p_0_0 <= 4
  + p_1_0 - p_0_0 + 5 x_1_0 >= 1
  + p_2_0 - p_0_0 + 5 x_2_0 >= 1
  + p_3_0 - p_0_0 + 5 x_3_0 >= 1
  + p_4_0 - p_0_0 + 5 x_4_0 >= 1
  p_1_0 <= 4
  + p_0_0 - p_1_0 + 5 x_0_1 >= 1
  + p_2_0 - p_1_0 + 5 x_2_1 >= 1
  + p_3_0 - p_1_0 + 5 x_3_1 >= 1
  + p_4_0 - p_1_0 + 5 x_4_1 >= 1
  p_2_0 <= 4
  + p_0_0 - p_2_0 + 5 x_0_2 >= 1
  + p_1_0 - p_2_0 + 5 x_1_2 >= 1
  + p_3_0 - p_2_0 + 5 x_3_2 >= 1
  + p_4_0 - p_2_0 + 5 x_4_2 >= 1
  p_3_0 <= 4
  + p_0_0 - p_3_0 + 5 x_0_3 >= 1
  + p_1_0 - p_3_0 + 5 x_1_3 >= 1
  + p_2_0 - p_3_0 + 5 x_2_3 >= 1
  + p_4_0 - p_3_0 + 5 x_4_3 >= 1
  p_4_0 <= 4
  + p_0_0 - p_4_0 + 5 x_0_4 >= 1
  + p_1_0 - p_4_0 + 5 x_1_4 >= 1
  + p_2_0 - p_4_0 + 5 x_2_4 >= 1
  + p_3_0 - p_4_0 + 5 x_3_4 >= 1
  p_5_1 <= 4
  + p_6_1 - p_5_1 + 5 x_6_5 >= 1
  + p_7_1 - p_5_1 + 5 x_7_5 >= 1
  + p_8_1 - p_5_1 + 5 x_8_5 >= 1
  + p_9_1 - p_5_1 + 5 x_9_5 >= 1
  p_6_1 <= 4
  + p_5_1 - p_6_1 + 5 x_5_6 >= 1
  + p_7_1 - p_6_1 + 5 x_7_6 >= 1
  + p_8_1 - p_6_1 + 5 x_8_6 >= 1
  + p_9_1 - p_6_1 + 5 x_9_6 >= 1
  p_7_1 <= 4
  + p_5_1 - p_7_1 + 5 x_5_7 >= 1
  + p_6_1 - p_7_1 + 5 x_6_7 >= 1
  + p_8_1 - p_7_1 + 5 x_8_7 >= 1
  + p_9_1 - p_7_1 + 5 x_9_7 >= 1
  p_8_1 <= 4
  + p_5_1 - p_8_1 + 5 x_5_8 >= 1
  + p_6_1 - p_8_1 + 5 x_6_8 >= 1
  + p_7_1 - p_8_1 + 5 x_7_8 >= 1
  + p_9_1 - p_8_1 + 5 x_9_8 >= 1
  p_9_1 <= 4
  + p_5_1 - p_9_1 + 5 x_5_9 >= 1
  + p_6_1 - p_9_1 + 5 x_6_9 >= 1
  + p_7_1 - p_9_1 + 5 x_7_9 >= 1
  + p_8_1 - p_9_1 + 5 x_8_9 >= 1
  + e_0_5 = 0
  + e_1_5 = 0
  + e_3_5 = 0
  + e_0_6 = 0
  + e_1_6 = 0
  + e_0_7 = 0
  + e_3_7 = 0
  + e_4_7 = 0
  + e_2_8 = 0
  + e_3_8 = 0
  + e_4_8 = 0
  + e_0_9 = 0
  + c_0_5_1_6 - x_1_0 - x_5_6 >= -1
  + c_0_5_1_6 - x_6_5 - x_0_1 >= -1
  + c_0_6_1_5 - x_1_0 - x_6_5 >= -1
  + c_0_6_1_5 - x_5_6 - x_0_1 >= -1
  + c_0_7_1_5 - x_1_0 - x_7_5 >= -1
  + c_0_7_1_5 - x_5_7 - x_0_1 >= -1
  + c_0_7_1_6 - x_1_0 - x_7_6 >= -1
  + c_0_7_1_6 - x_6_7 - x_0_1 >= -1
  + c_0_9_1_5 - x_1_0 - x_9_5 >= -1
  + c_0_9_1_5 - x_5_9 - x_0_1 >= -1
  + c_0_9_1_6 - x_1_0 - x_9_6 >= -1
  + c_0_9_1_6 - x_6_9 - x_0_1 >= -1
  + c_0_5_2_8 - x_2_0 - x_5_8 >= -1
  + c_0_5_2_8 - x_8_5 - x_0_2 >= -1
  + c_0_6_2_8 - x_2_0 - x_6_8 >= -1
  + c_0_6_2_8 - x_8_6 - x_0_2 >= -1
  + c_0_7_2_8 - x_2_0 - x_7_8 >= -1
  + c_0_7_2_8 - x_8_7 - x_0_2 >= -1
  + c_0_9_2_8 - x_2_0 - x_9_8 >= -1
  + c_0_9_2_8 - x_8_9 - x_0_2 >= -1
  + c_0_5_3_7 - x_3_0 - x_5_7 >= -1
  + c_0_5_3_7 - x_7_5 - x_0_3 >= -1
  + c_0_5_3_8 - x_3_0 - x_5_8 >= -1
  + c_0_5_3_8 - x_8_5 - x_0_3 >= -1
  + c_0_6_3_5 - x_3_0 - x_6_5 >= -1
  + c_0_6_3_5 - x_5_6 - x_0_3 >= -1
  + c_0_6_3_7 - x_3_0 - x_6_7 >= -1
  + c_0_6_3_7 - x_7_6 - x_0_3 >= -1
  + c_0_6_3_8 - x_3_0 - x_6_8 >= -1
  + c_0_6_3_8 - x_8_6 - x_0_3 >= -1
  + c_0_7_3_5 - x_3_0 - x_7_5 >= -1
  + c_0_7_3_5 - x_5_7 - x_0_3 >= -1
  + c_0_7_3_8 - x_3_0 - x_7_8 >= -1
  + c_0_7_3_8 - x_8_7 - x_0_3 >= -1
  + c_0_9_3_5 - x_3_0 - x_9_5 >= -1
  + c_0_9_3_5 - x_5_9 - x_0_3 >= -1
  + c_0_9_3_7 - x_3_0 - x_9_7 >= -1
  + c_0_9_3_7 - x_7_9 - x_0_3 >= -1
  + c_0_9_3_8 - x_3_0 - x_9_8 >= -1
  + c_0_9_3_8 - x_8_9 - x_0_3 >= -1
  + c_0_5_4_7 - x_4_0 - x_5_7 >= -1
  + c_0_5_4_7 - x_7_5 - x_0_4 >= -1
  + c_0_5_4_8 - x_4_0 - x_5_8 >= -1
  + c_0_5_4_8 - x_8_5 - x_0_4 >= -1
  + c_0_6_4_7 - x_4_0 - x_6_7 >= -1
  + c_0_6_4_7 - x_7_6 - x_0_4 >= -1
  + c_0_6_4_8 - x_4_0 - x_6_8 >= -1
  + c_0_6_4_8 - x_8_6 - x_0_4 >= -1
  + c_0_7_4_8 - x_4_0 - x_7_8 >= -1
  + c_0_7_4_8 - x_8_7 - x_0_4 >= -1
  + c_0_9_4_7 - x_4_0 - x_9_7 >= -1
  + c_0_9_4_7 - x_7_9 - x_0_4 >= -1
  + c_0_9_4_8 - x_4_0 - x_9_8 >= -1
  + c_0_9_4_8 - x_8_9 - x_0_4 >= -1
  + c_1_5_2_8 - x_2_1 - x_5_8 >= -1
  + c_1_5_2_8 - x_8_5 - x_1_2 >= -1
  + c_1_6_2_8 - x_2_1 - x_6_8 >= -1
  + c_1_6_2_8 - x_8_6 - x_1_2 >= -1
  + c_1_5_3_7 - x_3_1 - x_5_7 >= -1
  + c_1_5_3_7 - x_7_5 - x_1_3 >= -1
  + c_1_5_3_8 - x_3_1 - x_5_8 >= -1
  + c_1_5_3_8 - x_8_5 - x_1_3 >= -1
  + c_1_6_3_5 - x_3_1 - x_6_5 >= -1
  + c_1_6_3_5 - x_5_6 - x_1_3 >= -1
  + c_1_6_3_7 - x_3_1 - x_6_7 >= -1
  + c_1_6_3_7 - x_7_6 - x_1_3 >= -1
  + c_1_6_3_8 - x_3_1 - x_6_8 >= -1
  + c_1_6_3_8 - x_8_6 - x_1_3 >= -1
  + c_1_5_4_7 - x_4_1 - x_5_7 >= -1
  + c_1_5_4_7 - x_7_5 - x_1_4 >= -1
  + c_1_5_4_8 - x_4_1 - x_5_8 >= -1
  + c_1_5_4_8 - x_8_5 - x_1_4 >= -1
  + c_1_6_4_7 - x_4_1 - x_6_7 >= -1
  + c_1_6_4_7 - x_7_6 - x_1_4 >= -1
  + c_1_6_4_8 - x_4_1 - x_6_8 >= -1
  + c_1_6_4_8 - x_8_6 - x_1_4 >= -1
  + c_2_8_3_5 - x_3_2 - x_8_5 >= -1
  + c_2_8_3_5 - x_5_8 - x_2_3 >= -1
  + c_2_8_3_7 - x_3_2 - x_8_7 >= -1
  + c_2_8_3_7 - x_7_8 - x_2_3 >= -1
  + c_2_8_4_7 - x_4_2 - x_8_7 >= -1
  + c_2_8_4_7 - x_7_8 - x_2_4 >= -1
  + c_3_5_4_7 - x_4_3 - x_5_7 >= -1
  + c_3_5_4_7 - x_7_5 - x_3_4 >= -1
  + c_3_5_4_8 - x_4_3 - x_5_8 >= -1
  + c_3_5_4_8 - x_8_5 - x_3_4 >= -1
  + c_3_7_4_8 - x_4_3 - x_7_8 >= -1
  + c_3_7_4_8 - x_8_7 - x_3_4 >= -1
  + c_3_8_4_7 - x_4_3 - x_8_7 >= -1
  + c_3_8_4_7 - x_7_8 - x_3_4 >= -1
  + total - c_0_5_1_6 - c_0_6_1_5 - c_0_7_1_5 - c_0_7_1_6 - c_0_9_1_5 - c_0_9_1_6 - c_0_5_2_8 - c_0_6_2_8 - c_0_7_2_8 - c_0_9_2_8 - c_0_5_3_7 - c_0_5_3_8 - c_0_6_3_5 - c_0_6_3_7 - c_0_6_3_8 - c_0_7_3_5 - c_0_7_3_8 - c_0_9_3_5 - c_0_9_3_7
    - c_0_9_3_8 - c_0_5_4_7 - c_0_5_4_8 - c_0_6_4_7 - c_0_6_4_8 - c_0_7_4_8 - c_0_9_4_7 - c_0_9_4_8 - c_1_5_2_8 - c_1_6_2_8 - c_1_5_3_7 - c_1_5_3_8 - c_1_6_3_5 - c_1_6_3_7 - c_1_6_3_8 - c_1_5_4_7 - c_1_5_4_8 - c_1_6_4_7 - c_1_6_4_8 - c_2_8_3_5
    - c_2_8_3_7 - c_2_8_4_7 - c_3_5_4_7 - c_3_5_4_8 - c_3_7_4_8 - c_3_8_4_7 >= 0
Binary
  x_0_1 x_1_0 x_0_2 x_2_0 x_0_3 x_3_0 x_0_4 x_4_0 x_1_2 x_2_1 x_1_3 x_3_1 x_1_4 x_4_1 x_2_3 x_3_2 x_2_4 x_4_2 x_3_4 x_4_3
    x_5_6 x_6_5 x_5_7 x_7_5 x_5_8 x_8_5 x_5_9 x_9_5 x_6_7 x_7_6 x_6_8 x_8_6 x_6_9 x_9_6 x_7_8 x_8_7 x_7_9 x_9_7 x_8_9 x_9_8
    e_0_5 e_1_5 e_3_5 e_0_6 e_1_6 e_0_7 e_3_7 e_4_7 e_2_8 e_3_8 e_4_8 e_0_9 c_0_5_1_6 c_0_6_1_5 c_0_7_1_5 c_0_7_1_6 c_0_9_1_5 c_0_9_1_6 c_0_5_2_8 c_0_6_2_8
    c_0_7_2_8 c_0_9_2_8 c_0_5_3_7 c_0_5_3_8 c_0_6_3_5 c_0_6_3_7 c_0_6_3_8 c_0_7_3_5 c_0_7_3_8 c_0_9_3_5 c_0_9_3_7 c_0_9_3_8 c_0_5_4_7 c_0_5_4_8 c_0_6_4_7 c_0_6_4_8 c_0_7_4_8 c_0_9_4_7 c_0_9_4_8 c_1_5_2_8
    c_1_6_2_8 c_1_5_3_7 c_1_5_3_8 c_1_6_3_5 c_1_6_3_7 c_1_6_3_8 c_1_5_4_7 c_1_5_4_8 c_1_6_4_7 c_1_6_4_8 c_2_8_3_5 c_2_8_3_7 c_2_8_4_7 c_3_5_4_7 c_3_5_4_8 c_3_7_4_8 c_3_8_4_7
General
  p_0_0 p_1_0 p_2_0 p_3_0 p_4_0 p_5_1 p_6_1 p_7_1 p_8_1 p_9_1
End
